115897 
89834 68
0
75
1
23
22
21
25
24
46
45
44
48
47
69
67
50
49
52
51
66
56
55
58
57
63
61
59
60
41
40
39
38
34
33
32
29
28
43
42
54
53
27
26
30
31
19
20
5
4
3
2
8
7
6
9
10
35
36
37
18
17
16
15
11
12
13
14
74

26063 8
62
64
65
68
70
71
72
73

